
--- Job 1a.gms Start 12/31/21 11:37:57 37.1.0 r07954d5 WEX-WEI x86 64bit/MS Windows
--- Applying:
    C:\GAMS\37\gmsprmNT.txt
--- GAMS Parameters defined
    Input C:\Users\fatma\Desktop\1a.gms
    PageWidth 80
    PageSize 0
    PageContr 3
    Action CE
    ScrDir C:\Users\fatma\Documents\gamsdir\projdir\225a\
    SysDir C:\GAMS\37\
    WorkDir C:\Users\fatma\Documents\gamsdir\projdir\
    LogOption 3
    DFormat 0
    TFormat 0
    ErrorLog 99
    IDE 1
Licensee: GAMS Demo license for FATMANUR YAMAN           G211230|0002CO-GEN
          BOGAZICI UNIVERSITY, Turkey                              DL057000
          C:\Users\fatma\Documents\GAMS\gamslice.txt
          fatmanur.yaman@boun.edu.tr, FATMANUR YAMAN                       
          Demo license for demonstration and instructional purposes only
Processor information: 1 socket(s), 6 core(s), and 12 thread(s) available
GAMS 37.1.0   Copyright (C) 1987-2021 GAMS Development. All rights reserved
--- Starting compilation
--- 1a.gms(66) 3 Mb
--- Starting execution: elapsed 0:00:00.016
--- 1a.gms(60) 4 Mb
--- Generating LP model question
--- 1a.gms(61) 4 Mb
---   11 rows  25 columns  69 non-zeroes
--- Executing CPLEX (Solvelink=2): elapsed 0:00:00.021

IBM ILOG CPLEX   37.1.0 r07954d5 Released Nov 11, 2021 WEI x86 64bit/MS Window

--- *** This solver runs with a demo license. No commercial use.

*** Error Cannot open parameter file "C:\Users\fatma\Documents\gamsdir\projdir\cplex.opt"
*** Error Error code = 2; No such file or directory

--- GMO setup time: 0.00s
--- GMO memory 0.50 Mb (peak 0.50 Mb)
--- Dictionary memory 0.00 Mb
--- Cplex 20.1.0.1 link memory 0.00 Mb (peak 0.00 Mb)
--- Starting Cplex

Version identifier: 20.1.0.1 | 2021-04-07 | 3a818710c
CPXPARAM_Advance                                 0
CPXPARAM_Simplex_Display                         2
CPXPARAM_Threads                                 1
CPXPARAM_MIP_Display                             4
CPXPARAM_MIP_Pool_Capacity                       0
CPXPARAM_MIP_Tolerances_AbsMIPGap                0
Tried aggregator 1 time.
LP Presolve eliminated 0 rows and 1 columns.
Reduced LP has 10 rows, 24 columns, and 48 nonzeros.
Presolve time = 0.00 sec. (0.01 ticks)
Initializing dual steep norms . . .

Iteration      Dual Objective            In Variable           Out Variable
     1            1750.000000               x(P3,D5)       demand(D5) slack
     2            2950.000000               x(P3,D2)       demand(D2) slack
     3            4300.000000               x(P2,D1)       demand(D1) slack
     4            5340.000000               x(P3,D3)       demand(D3) slack
     5            5555.000000               x(P2,D3)            x(P3,Dummy)
     6            5555.000000               x(P4,D5)            x(P2,Dummy)
     7            6395.000000               x(P4,D4)       demand(D4) slack
     8            6520.000000               x(P1,D2)            x(P4,Dummy)
     9            6520.000000               x(P1,D4)               x(P3,D2)

--- LP status (1): optimal.
--- Cplex Time: 0.05sec (det. 0.03 ticks)


Optimal solution found
Objective:         6520.000000

--- Reading solution for model question
--- Executing after solve: elapsed 0:00:00.162
--- 1a.gms(62) 4 Mb
*** Status: Normal completion
--- Job 1a.gms Stop 12/31/21 11:37:57 elapsed 0:00:00.163
